\ LP format - for model browsing. Use MPS format to capture full model detail.
Minimize
<<<<<<< HEAD
  0 x[1,1] + 0 x[1,2] + 0 x[1,3] + 0 x[1,4] + 0 x[1,5] + 0 x[2,1] + 0 x[2,2]
   + 0 x[2,3] + 0 x[2,4] + 0 x[2,5] + 0 x[3,1] + 0 x[3,2] + 0 x[3,3]
   + 0 x[3,4] + 0 x[3,5] + 0 x[4,1] + 0 x[4,2] + 0 x[4,3] + 0 x[4,4]
   + 0 x[4,5] + 0 x[1,1] + 0 x[1,2] + 0 x[1,3] + 0 x[1,4] + 0 x[1,5]
   + 0 x[2,1] + 0 x[2,2] + 0 x[2,3] + 0 x[2,4] + 0 x[2,5] + 0 x[3,1]
   + 0 x[3,2] + 0 x[3,3] + 0 x[3,4] + 0 x[3,5] + 0 x[4,1] + 0 x[4,2]
   + 0 x[4,3] + 0 x[4,4] + 0 x[4,5] + x[1,1] + 2 x[1,2] + 3 x[1,3]
   + 4 x[1,4] + 4 x[1,5] + 5 x[2,1] + 6 x[2,2] + 7 x[2,3] + 8 x[2,4]
   + 8 x[2,5] + 9 x[3,1] + 10 x[3,2] + 11 x[3,3] + 12 x[3,4] + 12 x[3,5]
   + 13 x[4,1] + 14 x[4,2] + 15 x[4,3] + 16 x[4,4] + 16 x[4,5]
Subject To
 Flight_1: x[1,1] = 1
 Flight_2: x[2,2] = 1
 Flight_3: x[3,1] + x[3,2] + x[3,3] + x[3,4] = 1
 Flight_4: x[4,1] + x[4,2] + x[4,3] = 1
 Gate_1: x[1,1] <= 1
 Gate_2: x[2,2] <= 1
 Gate_3: <= 1
 Gate_4: <= 1
 Gate_5: <= 1
 Gate_1: x[1,1] + x[3,1] <= 1
 Gate_2: x[2,2] + x[3,2] <= 1
 Gate_3: x[3,3] <= 1
 Gate_4: x[3,4] <= 1
 Gate_5: <= 1
 Gate_1: x[3,1] + x[4,1] <= 1
 Gate_2: x[3,2] + x[4,2] <= 1
 Gate_3: x[3,3] + x[4,3] <= 1
 Gate_4: x[3,4] <= 1
 Gate_5: <= 1
=======
  0 x11 + 0 x12 + 0 x13 + 0 x14 + 0 x15 + 0 x21 + 0 x22 + 0 x23 + 0 x24
   + 0 x25 + 0 x31 + 0 x32 + 0 x33 + 0 x34 + 0 x35 + 0 x41 + 0 x42 + 0 x43
   + 0 x44 + 0 x45 + 0 x11 + 0 x12 + 0 x13 + 0 x14 + 0 x15 + 0 x21 + 0 x22
   + 0 x23 + 0 x24 + 0 x25 + 0 x31 + 0 x32 + 0 x33 + 0 x34 + 0 x35 + 0 x41
   + 0 x42 + 0 x43 + 0 x44 + 0 x45 + 3 x11 + 6 x12 + 9 x13 + 12 x14
   + 12 x15 + 15 x21 + 18 x22 + 21 x23 + 24 x24 + 24 x25 + 27 x31 + 30 x32
   + 33 x33 + 36 x34 + 36 x35 + 39 x41 + 42 x42 + 45 x43 + 48 x44 + 48 x45
Subject To
 Flight_1: x11 + x12 + x13 + x14 + x15 = 1
 Flight_2: x21 + x22 + x23 + x24 + x25 = 1
 Flight_3: x31 + x32 + x33 + x34 + x35 = 1
 Flight_4: x41 + x42 + x43 + x44 + x45 = 1
 Gate_1T_1: x11 + x21 <= 1
 Gate_2T_1: x12 + x22 <= 1
 Gate_3T_1: x13 + x23 <= 1
 Gate_4T_1: x14 + x24 <= 1
 Gate_5T_1: x15 + x25 <= 1
 Gate_1T_2: x11 + x21 + x31 <= 1
 Gate_2T_2: x12 + x22 + x32 <= 1
 Gate_3T_2: x13 + x23 + x33 <= 1
 Gate_4T_2: x14 + x24 + x34 <= 1
 Gate_5T_2: x15 + x25 + x35 <= 1
 Gate_1T_3: x31 + x41 <= 1
 Gate_2T_3: x32 + x42 <= 1
 Gate_3T_3: x33 + x43 <= 1
 Gate_4T_3: x34 + x44 <= 1
 Gate_5T_3: x35 + x45 <= 1
>>>>>>> 9b6dfc0c1d1dbe2e4e856fe3e30011c90a68cff2
Bounds
Binaries
 x11 x12 x13 x14 x15 x21 x22 x23 x24 x25 x31 x32 x33 x34 x35 x41 x42 x43
 x44 x45 x11 x12 x13 x14 x15 x21 x22 x23 x24 x25 x31 x32 x33 x34 x35 x41
 x42 x43 x44 x45 x11 x12 x13 x14 x15 x21 x22 x23 x24 x25 x31 x32 x33 x34
 x35 x41 x42 x43 x44 x45
End
